NAME: ./prFile/tspFile/tsp_file79.tsp
COMMENT: TSP file generated by Python
TYPE: TSP
DIMENSION: 40
EDGE_WEIGHT_TYPE: EUC_2D
NODE_COORD_SECTION
1 41 36
2 63 22
3 57 47
4 70 69
5 43 4
6 85 9
7 18 61
8 58 46
9 86 25
10 83 3
11 76 43
12 3 4
13 87 47
14 33 64
15 78 20
16 40 66
17 36 50
18 65 32
19 21 83
20 80 33
21 30 21
22 93 34
23 15 99
24 42 67
25 52 77
26 57 71
27 38 74
28 73 63
29 43 98
30 72 14
31 30 63
32 82 96
33 23 100
34 55 65
35 70 66
36 66 50
37 17 19
38 26 75
39 87 26
40 78 52
EOF
